&CONTROL
  calculation = 'vc-relax',
  restart_mode = 'from_scratch',
  prefix = 'fullQE',
  disk_io = 'medium',
  verbosity = 'high',
  etot_conv_thr = 2.0D-6,
  forc_conv_thr = 6.0D-4,
  outdir="./",
  nstep = 500,
/
&SYSTEM
  ibrav = 0,
  nat = 40,
  ntyp = 4,
  ecutwfc = 50.000000,
  ecutrho = 500.000000,
  vdw_corr = 'XDM',
  xdm_a1 = 0.6512,
  xdm_a2 = 1.4633,
/
&ELECTRONS
  electron_maxstep = 1500,
  conv_thr = 1.D-8,
  scf_must_converge = .TRUE.,
  mixing_beta = 0.5D0,
/
&IONS
/
&CELL
press = 0.D0,
/
ATOMIC_SPECIES
 H 1.00800 H.b86bpbe.UPF
 C 12.0100 C.b86bpbe.UPF
 N 14.0070 N.b86bpbe.UPF
 O 16.0000 O.b86bpbe.UPF

ATOMIC_POSITIONS crystal
C    0.43062   0.12507   0.43418
C    0.44215   0.14586   0.71409
H    0.42600   0.22410   0.73800
H    0.62500   0.11310   0.84300
N    0.20506   0.08843   0.75963
H    0.21200   0.01840   0.73400
H    0.03100   0.12380   0.65000
H    0.22000   0.09690   0.94600
O    0.65568   0.14233   0.39355
O    0.19760   0.09372   0.26346
C    0.06938   0.62507   1.06582
C    0.05785   0.64586   0.78591
H    0.07400   0.72410   0.76200
H   -0.12500   0.61310   0.65700
N    0.29494   0.58843   0.74037
H    0.28800   0.51840   0.76600
H    0.46900   0.62380   0.85000
H    0.28000   0.59690   0.55400
O   -0.15568   0.64233   1.10645
O    0.30240   0.59372   1.23654
C    0.56938   0.87493   0.56582
C    0.55785   0.85414   0.28591
H    0.57400   0.77590   0.26200
H    0.37500   0.88690   0.15700
N    0.79494   0.91157   0.24037
H    0.78800   0.98160   0.26600
H    0.96900   0.87620   0.35000
H    0.78000   0.90310   0.05400
O    0.34432   0.85767   0.60645
O    0.80240   0.90628   0.73654
C    0.93062   0.37493  -0.06582
C    0.94215   0.35414   0.21409
H    0.92600   0.27590   0.23800
H    1.12500   0.38690   0.34300
N    0.70506   0.41157   0.25963
H    0.71200   0.48160   0.23400
H    0.53100   0.37620   0.15000
H    0.72000   0.40310   0.44600
O    1.15568   0.35767  -0.10645
O    0.69760   0.40628  -0.23654

K_POINTS automatic
5 1 5 1 1 1

CELL_PARAMETERS angstrom
  5.08740000    0.00000000    0.00000000
  0.00000000   11.78170000    0.00000000
 -2.05134811    0.00000000    5.06377361

